p cnf 386 460
-2 17 3 21 22 0
-2 17 3 21 -22 0
-2 17 3 -21 23 0
-2 17 3 -21 -23 0
-2 -4 3 24 25 0
-2 -4 3 24 -25 0
-2 -4 3 -24 26 0
-2 -4 3 -24 -26 0
-15 1 -8 27 28 0
-15 1 -8 27 -28 0
-15 1 -8 -27 29 0
-15 1 -8 -27 -29 0
-9 -16 -1 30 31 0
-9 -16 -1 30 -31 0
-9 -16 -1 -30 32 0
-9 -16 -1 -30 -32 0
9 -5 14 33 34 0
9 -5 14 33 -34 0
9 -5 14 -33 35 0
9 -5 14 -33 -35 0
-9 14 20 36 37 0
-9 14 20 36 -37 0
-9 14 20 -36 38 0
-9 14 20 -36 -38 0
19 8 5 39 40 0
19 8 5 39 -40 0
19 8 5 -39 41 0
19 8 5 -39 -41 0
-4 -15 2 42 43 0
-4 -15 2 42 -43 0
-4 -15 2 -42 44 0
-4 -15 2 -42 -44 0
5 -1 -3 45 46 0
5 -1 -3 45 -46 0
5 -1 -3 -45 47 0
5 -1 -3 -45 -47 0
-1 -6 -4 48 49 0
-1 -6 -4 48 -49 0
-1 -6 -4 -48 50 0
-1 -6 -4 -48 -50 0
-18 -3 -10 51 52 0
-18 -3 -10 51 -52 0
-18 -3 -10 -51 53 0
-18 -3 -10 -51 -53 0
19 -13 4 54 55 0
19 -13 4 54 -55 0
19 -13 4 -54 56 0
19 -13 4 -54 -56 0
5 17 -19 57 58 0
5 17 -19 57 -58 0
5 17 -19 -57 59 0
5 17 -19 -57 -59 0
-14 12 -17 60 61 0
-14 12 -17 60 -61 0
-14 12 -17 -60 62 0
-14 12 -17 -60 -62 0
-18 13 -20 63 64 0
-18 13 -20 63 -64 0
-18 13 -20 -63 65 0
-18 13 -20 -63 -65 0
9 8 5 66 67 0
9 8 5 66 -67 0
9 8 5 -66 68 0
9 8 5 -66 -68 0
4 14 -7 69 70 0
4 14 -7 69 -70 0
4 14 -7 -69 71 0
4 14 -7 -69 -71 0
3 -6 17 72 73 0
3 -6 17 72 -73 0
3 -6 17 -72 74 0
3 -6 17 -72 -74 0
-2 -8 7 75 76 0
-2 -8 7 75 -76 0
-2 -8 7 -75 77 0
-2 -8 7 -75 -77 0
16 -8 -2 78 79 0
16 -8 -2 78 -79 0
16 -8 -2 -78 80 0
16 -8 -2 -78 -80 0
-15 1 2 81 82 0
-15 1 2 81 -82 0
-15 1 2 -81 83 0
-15 1 2 -81 -83 0
4 17 -5 84 85 0
4 17 -5 84 -85 0
4 17 -5 -84 86 0
4 17 -5 -84 -86 0
-1 -6 -18 87 88 0
-1 -6 -18 87 -88 0
-1 -6 -18 -87 89 0
-1 -6 -18 -87 -89 0
-7 -17 -2 90 91 0
-7 -17 -2 90 -91 0
-7 -17 -2 -90 92 0
-7 -17 -2 -90 -92 0
-16 -11 -5 93 94 0
-16 -11 -5 93 -94 0
-16 -11 -5 -93 95 0
-16 -11 -5 -93 -95 0
-14 -13 19 96 97 0
-14 -13 19 96 -97 0
-14 -13 19 -96 98 0
-14 -13 19 -96 -98 0
16 -17 -1 99 100 0
16 -17 -1 99 -100 0
16 -17 -1 -99 101 0
16 -17 -1 -99 -101 0
6 5 10 102 103 0
6 5 10 102 -103 0
6 5 10 -102 104 0
6 5 10 -102 -104 0
8 -17 5 105 106 0
8 -17 5 105 -106 0
8 -17 5 -105 107 0
8 -17 5 -105 -107 0
-16 4 6 108 109 0
-16 4 6 108 -109 0
-16 4 6 -108 110 0
-16 4 6 -108 -110 0
6 13 2 111 112 0
6 13 2 111 -112 0
6 13 2 -111 113 0
6 13 2 -111 -113 0
-17 1 -19 114 115 0
-17 1 -19 114 -115 0
-17 1 -19 -114 116 0
-17 1 -19 -114 -116 0
-9 -11 4 117 118 0
-9 -11 4 117 -118 0
-9 -11 4 -117 119 0
-9 -11 4 -117 -119 0
1 -20 6 120 121 0
1 -20 6 120 -121 0
1 -20 6 -120 122 0
1 -20 6 -120 -122 0
-16 -14 -8 123 124 0
-16 -14 -8 123 -124 0
-16 -14 -8 -123 125 0
-16 -14 -8 -123 -125 0
-10 -18 -15 126 127 0
-10 -18 -15 126 -127 0
-10 -18 -15 -126 128 0
-10 -18 -15 -126 -128 0
-15 -19 -8 129 130 0
-15 -19 -8 129 -130 0
-15 -19 -8 -129 131 0
-15 -19 -8 -129 -131 0
11 1 -14 132 133 0
11 1 -14 132 -133 0
11 1 -14 -132 134 0
11 1 -14 -132 -134 0
3 -5 20 135 136 0
3 -5 20 135 -136 0
3 -5 20 -135 137 0
3 -5 20 -135 -137 0
18 13 -1 138 139 0
18 13 -1 138 -139 0
18 13 -1 -138 140 0
18 13 -1 -138 -140 0
-19 -15 14 141 142 0
-19 -15 14 141 -142 0
-19 -15 14 -141 143 0
-19 -15 14 -141 -143 0
8 -14 11 144 145 0
8 -14 11 144 -145 0
8 -14 11 -144 146 0
8 -14 11 -144 -146 0
18 -12 -20 147 148 0
18 -12 -20 147 -148 0
18 -12 -20 -147 149 0
18 -12 -20 -147 -149 0
3 -1 14 150 151 0
3 -1 14 150 -151 0
3 -1 14 -150 152 0
3 -1 14 -150 -152 0
3 -11 -1 153 154 0
3 -11 -1 153 -154 0
3 -11 -1 -153 155 0
3 -11 -1 -153 -155 0
-7 -19 13 156 157 0
-7 -19 13 156 -157 0
-7 -19 13 -156 158 0
-7 -19 13 -156 -158 0
-4 20 -1 159 160 0
-4 20 -1 159 -160 0
-4 20 -1 -159 161 0
-4 20 -1 -159 -161 0
1 5 -4 162 163 0
1 5 -4 162 -163 0
1 5 -4 -162 164 0
1 5 -4 -162 -164 0
14 -8 -19 165 166 0
14 -8 -19 165 -166 0
14 -8 -19 -165 167 0
14 -8 -19 -165 -167 0
8 15 7 168 169 0
8 15 7 168 -169 0
8 15 7 -168 170 0
8 15 7 -168 -170 0
-6 9 -4 171 172 0
-6 9 -4 171 -172 0
-6 9 -4 -171 173 0
-6 9 -4 -171 -173 0
6 12 15 174 175 0
6 12 15 174 -175 0
6 12 15 -174 176 0
6 12 15 -174 -176 0
18 8 6 177 178 0
18 8 6 177 -178 0
18 8 6 -177 179 0
18 8 6 -177 -179 0
-20 2 17 180 181 0
-20 2 17 180 -181 0
-20 2 17 -180 182 0
-20 2 17 -180 -182 0
15 16 4 183 184 0
15 16 4 183 -184 0
15 16 4 -183 185 0
15 16 4 -183 -185 0
-7 10 14 186 187 0
-7 10 14 186 -187 0
-7 10 14 -186 188 0
-7 10 14 -186 -188 0
-6 -14 1 189 190 0
-6 -14 1 189 -190 0
-6 -14 1 -189 191 0
-6 -14 1 -189 -191 0
-18 -7 -19 192 193 0
-18 -7 -19 192 -193 0
-18 -7 -19 -192 194 0
-18 -7 -19 -192 -194 0
16 14 -18 195 196 0
16 14 -18 195 -196 0
16 14 -18 -195 197 0
16 14 -18 -195 -197 0
19 6 14 198 199 0
19 6 14 198 -199 0
19 6 14 -198 200 0
19 6 14 -198 -200 0
13 4 -11 201 202 0
13 4 -11 201 -202 0
13 4 -11 -201 203 0
13 4 -11 -201 -203 0
-15 -19 -17 204 205 0
-15 -19 -17 204 -205 0
-15 -19 -17 -204 206 0
-15 -19 -17 -204 -206 0
-12 5 11 207 208 0
-12 5 11 207 -208 0
-12 5 11 -207 209 0
-12 5 11 -207 -209 0
-14 -15 8 210 211 0
-14 -15 8 210 -211 0
-14 -15 8 -210 212 0
-14 -15 8 -210 -212 0
-16 -2 -15 213 214 0
-16 -2 -15 213 -214 0
-16 -2 -15 -213 215 0
-16 -2 -15 -213 -215 0
-11 -15 6 216 217 0
-11 -15 6 216 -217 0
-11 -15 6 -216 218 0
-11 -15 6 -216 -218 0
-5 -18 -20 219 220 0
-5 -18 -20 219 -220 0
-5 -18 -20 -219 221 0
-5 -18 -20 -219 -221 0
11 -20 2 222 223 0
11 -20 2 222 -223 0
11 -20 2 -222 224 0
11 -20 2 -222 -224 0
-12 11 -17 225 226 0
-12 11 -17 225 -226 0
-12 11 -17 -225 227 0
-12 11 -17 -225 -227 0
-20 -3 14 228 229 0
-20 -3 14 228 -229 0
-20 -3 14 -228 230 0
-20 -3 14 -228 -230 0
-9 11 -20 231 232 0
-9 11 -20 231 -232 0
-9 11 -20 -231 233 0
-9 11 -20 -231 -233 0
-17 6 -16 234 235 0
-17 6 -16 234 -235 0
-17 6 -16 -234 236 0
-17 6 -16 -234 -236 0
-13 -16 11 237 238 0
-13 -16 11 237 -238 0
-13 -16 11 -237 239 0
-13 -16 11 -237 -239 0
-18 10 19 240 241 0
-18 10 19 240 -241 0
-18 10 19 -240 242 0
-18 10 19 -240 -242 0
7 9 8 243 244 0
7 9 8 243 -244 0
7 9 8 -243 245 0
7 9 8 -243 -245 0
6 12 -18 246 247 0
6 12 -18 246 -247 0
6 12 -18 -246 248 0
6 12 -18 -246 -248 0
-3 5 19 249 250 0
-3 5 19 249 -250 0
-3 5 19 -249 251 0
-3 5 19 -249 -251 0
11 6 1 252 253 0
11 6 1 252 -253 0
11 6 1 -252 254 0
11 6 1 -252 -254 0
-3 12 -7 255 256 0
-3 12 -7 255 -256 0
-3 12 -7 -255 257 0
-3 12 -7 -255 -257 0
4 -9 20 258 259 0
4 -9 20 258 -259 0
4 -9 20 -258 260 0
4 -9 20 -258 -260 0
-9 3 5 261 262 0
-9 3 5 261 -262 0
-9 3 5 -261 263 0
-9 3 5 -261 -263 0
-17 12 -8 264 265 0
-17 12 -8 264 -265 0
-17 12 -8 -264 266 0
-17 12 -8 -264 -266 0
5 1 3 267 268 0
5 1 3 267 -268 0
5 1 3 -267 269 0
5 1 3 -267 -269 0
-13 9 -17 270 271 0
-13 9 -17 270 -271 0
-13 9 -17 -270 272 0
-13 9 -17 -270 -272 0
11 -9 -6 273 274 0
11 -9 -6 273 -274 0
11 -9 -6 -273 275 0
11 -9 -6 -273 -275 0
17 -1 19 276 277 0
17 -1 19 276 -277 0
17 -1 19 -276 278 0
17 -1 19 -276 -278 0
-5 11 20 279 280 0
-5 11 20 279 -280 0
-5 11 20 -279 281 0
-5 11 20 -279 -281 0
-10 -11 -9 282 283 0
-10 -11 -9 282 -283 0
-10 -11 -9 -282 284 0
-10 -11 -9 -282 -284 0
-18 9 3 285 286 0
-18 9 3 285 -286 0
-18 9 3 -285 287 0
-18 9 3 -285 -287 0
-11 18 16 288 289 0
-11 18 16 288 -289 0
-11 18 16 -288 290 0
-11 18 16 -288 -290 0
-12 5 9 291 292 0
-12 5 9 291 -292 0
-12 5 9 -291 293 0
-12 5 9 -291 -293 0
294 295 297 301 309 0
294 295 297 301 -309 0
294 295 297 -301 310 0
294 295 297 -301 -310 0
294 295 -297 302 311 0
294 295 -297 302 -311 0
294 295 -297 -302 312 0
294 295 -297 -302 -312 0
294 -295 298 303 313 0
294 -295 298 303 -313 0
294 -295 298 -303 314 0
294 -295 298 -303 -314 0
294 -295 -298 304 315 0
294 -295 -298 304 -315 0
294 -295 -298 -304 316 0
294 -295 -298 -304 -316 0
-294 296 299 305 317 0
-294 296 299 305 -317 0
-294 296 299 -305 318 0
-294 296 299 -305 -318 0
-294 296 -299 306 319 0
-294 296 -299 306 -319 0
-294 296 -299 -306 320 0
-294 296 -299 -306 -320 0
-294 -296 300 307 321 0
-294 -296 300 307 -321 0
-294 -296 300 -307 322 0
-294 -296 300 -307 -322 0
-294 -296 -300 308 323 0
-294 -296 -300 308 -323 0
-294 -296 -300 -308 324 0
-294 -296 -300 -308 -324 0
325 326 328 332 340 0
325 326 328 332 -340 0
325 326 328 -332 341 0
325 326 328 -332 -341 0
325 326 -328 333 342 0
325 326 -328 333 -342 0
325 326 -328 -333 343 0
325 326 -328 -333 -343 0
325 -326 329 334 344 0
325 -326 329 334 -344 0
325 -326 329 -334 345 0
325 -326 329 -334 -345 0
325 -326 -329 335 346 0
325 -326 -329 335 -346 0
325 -326 -329 -335 347 0
325 -326 -329 -335 -347 0
-325 327 330 336 348 0
-325 327 330 336 -348 0
-325 327 330 -336 349 0
-325 327 330 -336 -349 0
-325 327 -330 337 350 0
-325 327 -330 337 -350 0
-325 327 -330 -337 351 0
-325 327 -330 -337 -351 0
-325 -327 331 338 352 0
-325 -327 331 338 -352 0
-325 -327 331 -338 353 0
-325 -327 331 -338 -353 0
-325 -327 -331 339 354 0
-325 -327 -331 339 -354 0
-325 -327 -331 -339 355 0
-325 -327 -331 -339 -355 0
356 357 359 363 371 0
356 357 359 363 -371 0
356 357 359 -363 372 0
356 357 359 -363 -372 0
356 357 -359 364 373 0
356 357 -359 364 -373 0
356 357 -359 -364 374 0
356 357 -359 -364 -374 0
356 -357 360 365 375 0
356 -357 360 365 -375 0
356 -357 360 -365 376 0
356 -357 360 -365 -376 0
356 -357 -360 366 377 0
356 -357 -360 366 -377 0
356 -357 -360 -366 378 0
356 -357 -360 -366 -378 0
-356 358 361 367 379 0
-356 358 361 367 -379 0
-356 358 361 -367 380 0
-356 358 361 -367 -380 0
-356 358 -361 368 381 0
-356 358 -361 368 -381 0
-356 358 -361 -368 382 0
-356 358 -361 -368 -382 0
-356 -358 362 369 383 0
-356 -358 362 369 -383 0
-356 -358 362 -369 384 0
-356 -358 362 -369 -384 0
-356 -358 -362 370 385 0
-356 -358 -362 370 -385 0
-356 -358 -362 -370 386 0
-356 -358 -362 -370 -386 0

